10
30 31
415 374
496 331
54 365
419 235
263 169
480 7
323 463
404 100
81 118
4 256
407 329
68 173
227 297
494 416
204 115
306 25
172 440
305 208
292 256
95 178
53 352
457 56
36 360
478 79
346 92
208 368
93 221
47 95
201 222
